n_res = 2;
rcap = [28, 20];
rtype = [1, 1];
n_tasks = 12;
modes = [ {1, 2, 3}, {4, 5, 6}, {7, 8, 9}, {10, 11, 12}, {13, 14, 15}, {16, 17, 18}, {19, 20, 21}, {22, 23, 24}, {25, 26, 27}, {28, 29, 30}, {31, 32, 33}, {34, 35, 36} ];
succ = [ {4, 5, 6}, {4, 6, 8}, {4, 9, 10}, {11, 12}, {7}, {10, 11, 12}, {8, 10, 12}, {9}, {11}, {}, {}, {} ];
n_opt = 36;
dur = [3, 7, 10, 1, 5, 7, 2, 5, 9, 3, 3, 6, 6, 6, 8, 5, 8, 9, 1, 4, 4, 2, 6, 7, 4, 6, 8, 3, 5, 7, 4, 6, 8, 2, 5, 6];
rreq = [|  2,  2,  1, 10,  5,  4,  3,  2,  2,  3,  4,  2,  4,  5,  3,  8,  5,  2,  7,  7,  4,  8,  5,  1,  9,  6,  4, 10,  6,  5,  8,  5,  3, 10,  9,  7
        |  5,  4,  3,  6,  4,  2,  9,  9,  8,  9,  8,  6,  4,  3,  2,  7,  5,  3,  5,  2,  4,  5,  4,  4,  4,  4,  4,  7,  7,  7,  8,  8,  8,  6,  5,  2 |];
